(set-logic QF_NRA_ODE)
(declare-fun DG () Real)
(declare-fun DG_0_0 () Real)
(declare-fun DG_0_t () Real)
(assert (>= DG_0_0  0))
(assert (>= DG_0_t  0))
(assert (<= DG_0_0  120))
(assert (<= DG_0_t  120))
(declare-fun DG_1_0 () Real)
(declare-fun DG_1_t () Real)
(assert (>= DG_1_0  0))
(assert (>= DG_1_t  0))
(assert (<= DG_1_0  120))
(assert (<= DG_1_t  120))
(declare-fun DG_2_0 () Real)
(declare-fun DG_2_t () Real)
(assert (>= DG_2_0  0))
(assert (>= DG_2_t  0))
(assert (<= DG_2_0  120))
(assert (<= DG_2_t  120))
(declare-fun DG_3_0 () Real)
(declare-fun DG_3_t () Real)
(assert (>= DG_3_0  0))
(assert (>= DG_3_t  0))
(assert (<= DG_3_0  120))
(assert (<= DG_3_t  120))
(declare-fun DG_4_0 () Real)
(declare-fun DG_4_t () Real)
(assert (>= DG_4_0  0))
(assert (>= DG_4_t  0))
(assert (<= DG_4_0  120))
(assert (<= DG_4_t  120))
(declare-fun FQ1_hyper_int () Real)
(declare-fun FQ1_hyper_int_0_0 () Real)
(declare-fun FQ1_hyper_int_0_t () Real)
(assert (>= FQ1_hyper_int_0_0 (- 1e6)))
(assert (>= FQ1_hyper_int_0_t (- 1e6)))
(assert (<= FQ1_hyper_int_0_0  1e6))
(assert (<= FQ1_hyper_int_0_t  1e6))
(declare-fun FQ1_hyper_int_1_0 () Real)
(declare-fun FQ1_hyper_int_1_t () Real)
(assert (>= FQ1_hyper_int_1_0 (- 1e6)))
(assert (>= FQ1_hyper_int_1_t (- 1e6)))
(assert (<= FQ1_hyper_int_1_0  1e6))
(assert (<= FQ1_hyper_int_1_t  1e6))
(declare-fun FQ1_hyper_int_2_0 () Real)
(declare-fun FQ1_hyper_int_2_t () Real)
(assert (>= FQ1_hyper_int_2_0 (- 1e6)))
(assert (>= FQ1_hyper_int_2_t (- 1e6)))
(assert (<= FQ1_hyper_int_2_0  1e6))
(assert (<= FQ1_hyper_int_2_t  1e6))
(declare-fun FQ1_hyper_int_3_0 () Real)
(declare-fun FQ1_hyper_int_3_t () Real)
(assert (>= FQ1_hyper_int_3_0 (- 1e6)))
(assert (>= FQ1_hyper_int_3_t (- 1e6)))
(assert (<= FQ1_hyper_int_3_0  1e6))
(assert (<= FQ1_hyper_int_3_t  1e6))
(declare-fun FQ1_hyper_int_4_0 () Real)
(declare-fun FQ1_hyper_int_4_t () Real)
(assert (>= FQ1_hyper_int_4_0 (- 1e6)))
(assert (>= FQ1_hyper_int_4_t (- 1e6)))
(assert (<= FQ1_hyper_int_4_0  1e6))
(assert (<= FQ1_hyper_int_4_t  1e6))
(declare-fun FQ1_hypo_int () Real)
(declare-fun FQ1_hypo_int_0_0 () Real)
(declare-fun FQ1_hypo_int_0_t () Real)
(assert (>= FQ1_hypo_int_0_0 (- 1e6)))
(assert (>= FQ1_hypo_int_0_t (- 1e6)))
(assert (<= FQ1_hypo_int_0_0  1e6))
(assert (<= FQ1_hypo_int_0_t  1e6))
(declare-fun FQ1_hypo_int_1_0 () Real)
(declare-fun FQ1_hypo_int_1_t () Real)
(assert (>= FQ1_hypo_int_1_0 (- 1e6)))
(assert (>= FQ1_hypo_int_1_t (- 1e6)))
(assert (<= FQ1_hypo_int_1_0  1e6))
(assert (<= FQ1_hypo_int_1_t  1e6))
(declare-fun FQ1_hypo_int_2_0 () Real)
(declare-fun FQ1_hypo_int_2_t () Real)
(assert (>= FQ1_hypo_int_2_0 (- 1e6)))
(assert (>= FQ1_hypo_int_2_t (- 1e6)))
(assert (<= FQ1_hypo_int_2_0  1e6))
(assert (<= FQ1_hypo_int_2_t  1e6))
(declare-fun FQ1_hypo_int_3_0 () Real)
(declare-fun FQ1_hypo_int_3_t () Real)
(assert (>= FQ1_hypo_int_3_0 (- 1e6)))
(assert (>= FQ1_hypo_int_3_t (- 1e6)))
(assert (<= FQ1_hypo_int_3_0  1e6))
(assert (<= FQ1_hypo_int_3_t  1e6))
(declare-fun FQ1_hypo_int_4_0 () Real)
(declare-fun FQ1_hypo_int_4_t () Real)
(assert (>= FQ1_hypo_int_4_0 (- 1e6)))
(assert (>= FQ1_hypo_int_4_t (- 1e6)))
(assert (<= FQ1_hypo_int_4_0  1e6))
(assert (<= FQ1_hypo_int_4_t  1e6))
(declare-fun I () Real)
(declare-fun I_0_0 () Real)
(declare-fun I_0_t () Real)
(assert (>= I_0_0  0))
(assert (>= I_0_t  0))
(assert (<= I_0_0  1e6))
(assert (<= I_0_t  1e6))
(declare-fun I_1_0 () Real)
(declare-fun I_1_t () Real)
(assert (>= I_1_0  0))
(assert (>= I_1_t  0))
(assert (<= I_1_0  1e6))
(assert (<= I_1_t  1e6))
(declare-fun I_2_0 () Real)
(declare-fun I_2_t () Real)
(assert (>= I_2_0  0))
(assert (>= I_2_t  0))
(assert (<= I_2_0  1e6))
(assert (<= I_2_t  1e6))
(declare-fun I_3_0 () Real)
(declare-fun I_3_t () Real)
(assert (>= I_3_0  0))
(assert (>= I_3_t  0))
(assert (<= I_3_0  1e6))
(assert (<= I_3_t  1e6))
(declare-fun I_4_0 () Real)
(declare-fun I_4_t () Real)
(assert (>= I_4_0  0))
(assert (>= I_4_t  0))
(assert (<= I_4_0  1e6))
(assert (<= I_4_t  1e6))
(declare-fun Q1 () Real)
(declare-fun Q1_0_0 () Real)
(declare-fun Q1_0_t () Real)
(assert (>= Q1_0_0  0))
(assert (>= Q1_0_t  0))
(assert (<= Q1_0_0  1e6))
(assert (<= Q1_0_t  1e6))
(declare-fun Q1_1_0 () Real)
(declare-fun Q1_1_t () Real)
(assert (>= Q1_1_0  0))
(assert (>= Q1_1_t  0))
(assert (<= Q1_1_0  1e6))
(assert (<= Q1_1_t  1e6))
(declare-fun Q1_2_0 () Real)
(declare-fun Q1_2_t () Real)
(assert (>= Q1_2_0  0))
(assert (>= Q1_2_t  0))
(assert (<= Q1_2_0  1e6))
(assert (<= Q1_2_t  1e6))
(declare-fun Q1_3_0 () Real)
(declare-fun Q1_3_t () Real)
(assert (>= Q1_3_0  0))
(assert (>= Q1_3_t  0))
(assert (<= Q1_3_0  1e6))
(assert (<= Q1_3_t  1e6))
(declare-fun Q1_4_0 () Real)
(declare-fun Q1_4_t () Real)
(assert (>= Q1_4_0  0))
(assert (>= Q1_4_t  0))
(assert (<= Q1_4_0  1e6))
(assert (<= Q1_4_t  1e6))
(declare-fun Q1_prev () Real)
(declare-fun Q1_prev_0_0 () Real)
(declare-fun Q1_prev_0_t () Real)
(assert (>= Q1_prev_0_0  0))
(assert (>= Q1_prev_0_t  0))
(assert (<= Q1_prev_0_0  1e6))
(assert (<= Q1_prev_0_t  1e6))
(declare-fun Q1_prev_1_0 () Real)
(declare-fun Q1_prev_1_t () Real)
(assert (>= Q1_prev_1_0  0))
(assert (>= Q1_prev_1_t  0))
(assert (<= Q1_prev_1_0  1e6))
(assert (<= Q1_prev_1_t  1e6))
(declare-fun Q1_prev_2_0 () Real)
(declare-fun Q1_prev_2_t () Real)
(assert (>= Q1_prev_2_0  0))
(assert (>= Q1_prev_2_t  0))
(assert (<= Q1_prev_2_0  1e6))
(assert (<= Q1_prev_2_t  1e6))
(declare-fun Q1_prev_3_0 () Real)
(declare-fun Q1_prev_3_t () Real)
(assert (>= Q1_prev_3_0  0))
(assert (>= Q1_prev_3_t  0))
(assert (<= Q1_prev_3_0  1e6))
(assert (<= Q1_prev_3_t  1e6))
(declare-fun Q1_prev_4_0 () Real)
(declare-fun Q1_prev_4_t () Real)
(assert (>= Q1_prev_4_0  0))
(assert (>= Q1_prev_4_t  0))
(assert (<= Q1_prev_4_0  1e6))
(assert (<= Q1_prev_4_t  1e6))
(declare-fun Q2 () Real)
(declare-fun Q2_0_0 () Real)
(declare-fun Q2_0_t () Real)
(assert (>= Q2_0_0  0))
(assert (>= Q2_0_t  0))
(assert (<= Q2_0_0  1e6))
(assert (<= Q2_0_t  1e6))
(declare-fun Q2_1_0 () Real)
(declare-fun Q2_1_t () Real)
(assert (>= Q2_1_0  0))
(assert (>= Q2_1_t  0))
(assert (<= Q2_1_0  1e6))
(assert (<= Q2_1_t  1e6))
(declare-fun Q2_2_0 () Real)
(declare-fun Q2_2_t () Real)
(assert (>= Q2_2_0  0))
(assert (>= Q2_2_t  0))
(assert (<= Q2_2_0  1e6))
(assert (<= Q2_2_t  1e6))
(declare-fun Q2_3_0 () Real)
(declare-fun Q2_3_t () Real)
(assert (>= Q2_3_0  0))
(assert (>= Q2_3_t  0))
(assert (<= Q2_3_0  1e6))
(assert (<= Q2_3_t  1e6))
(declare-fun Q2_4_0 () Real)
(declare-fun Q2_4_t () Real)
(assert (>= Q2_4_0  0))
(assert (>= Q2_4_t  0))
(assert (<= Q2_4_0  1e6))
(assert (<= Q2_4_t  1e6))
(declare-fun S1 () Real)
(declare-fun S1_0_0 () Real)
(declare-fun S1_0_t () Real)
(assert (>= S1_0_0  0))
(assert (>= S1_0_t  0))
(assert (<= S1_0_0  1e6))
(assert (<= S1_0_t  1e6))
(declare-fun S1_1_0 () Real)
(declare-fun S1_1_t () Real)
(assert (>= S1_1_0  0))
(assert (>= S1_1_t  0))
(assert (<= S1_1_0  1e6))
(assert (<= S1_1_t  1e6))
(declare-fun S1_2_0 () Real)
(declare-fun S1_2_t () Real)
(assert (>= S1_2_0  0))
(assert (>= S1_2_t  0))
(assert (<= S1_2_0  1e6))
(assert (<= S1_2_t  1e6))
(declare-fun S1_3_0 () Real)
(declare-fun S1_3_t () Real)
(assert (>= S1_3_0  0))
(assert (>= S1_3_t  0))
(assert (<= S1_3_0  1e6))
(assert (<= S1_3_t  1e6))
(declare-fun S1_4_0 () Real)
(declare-fun S1_4_t () Real)
(assert (>= S1_4_0  0))
(assert (>= S1_4_t  0))
(assert (<= S1_4_0  1e6))
(assert (<= S1_4_t  1e6))
(declare-fun S2 () Real)
(declare-fun S2_0_0 () Real)
(declare-fun S2_0_t () Real)
(assert (>= S2_0_0  0))
(assert (>= S2_0_t  0))
(assert (<= S2_0_0  1e6))
(assert (<= S2_0_t  1e6))
(declare-fun S2_1_0 () Real)
(declare-fun S2_1_t () Real)
(assert (>= S2_1_0  0))
(assert (>= S2_1_t  0))
(assert (<= S2_1_0  1e6))
(assert (<= S2_1_t  1e6))
(declare-fun S2_2_0 () Real)
(declare-fun S2_2_t () Real)
(assert (>= S2_2_0  0))
(assert (>= S2_2_t  0))
(assert (<= S2_2_0  1e6))
(assert (<= S2_2_t  1e6))
(declare-fun S2_3_0 () Real)
(declare-fun S2_3_t () Real)
(assert (>= S2_3_0  0))
(assert (>= S2_3_t  0))
(assert (<= S2_3_0  1e6))
(assert (<= S2_3_t  1e6))
(declare-fun S2_4_0 () Real)
(declare-fun S2_4_t () Real)
(assert (>= S2_4_0  0))
(assert (>= S2_4_t  0))
(assert (<= S2_4_0  1e6))
(assert (<= S2_4_t  1e6))
(declare-fun counter () Real)
(declare-fun counter_0_0 () Real)
(declare-fun counter_0_t () Real)
(assert (>= counter_0_0  0))
(assert (>= counter_0_t  0))
(assert (<= counter_0_0  1440))
(assert (<= counter_0_t  1440))
(declare-fun counter_1_0 () Real)
(declare-fun counter_1_t () Real)
(assert (>= counter_1_0  0))
(assert (>= counter_1_t  0))
(assert (<= counter_1_0  1440))
(assert (<= counter_1_t  1440))
(declare-fun counter_2_0 () Real)
(declare-fun counter_2_t () Real)
(assert (>= counter_2_0  0))
(assert (>= counter_2_t  0))
(assert (<= counter_2_0  1440))
(assert (<= counter_2_t  1440))
(declare-fun counter_3_0 () Real)
(declare-fun counter_3_t () Real)
(assert (>= counter_3_0  0))
(assert (>= counter_3_t  0))
(assert (<= counter_3_0  1440))
(assert (<= counter_3_t  1440))
(declare-fun counter_4_0 () Real)
(declare-fun counter_4_t () Real)
(assert (>= counter_4_0  0))
(assert (>= counter_4_t  0))
(assert (<= counter_4_0  1440))
(assert (<= counter_4_t  1440))
(declare-fun e_der_dis () Real)
(declare-fun e_der_dis_0_0 () Real)
(declare-fun e_der_dis_0_t () Real)
(assert (>= e_der_dis_0_0 (- 1e9)))
(assert (>= e_der_dis_0_t (- 1e9)))
(assert (<= e_der_dis_0_0  1e9))
(assert (<= e_der_dis_0_t  1e9))
(declare-fun e_der_dis_1_0 () Real)
(declare-fun e_der_dis_1_t () Real)
(assert (>= e_der_dis_1_0 (- 1e9)))
(assert (>= e_der_dis_1_t (- 1e9)))
(assert (<= e_der_dis_1_0  1e9))
(assert (<= e_der_dis_1_t  1e9))
(declare-fun e_der_dis_2_0 () Real)
(declare-fun e_der_dis_2_t () Real)
(assert (>= e_der_dis_2_0 (- 1e9)))
(assert (>= e_der_dis_2_t (- 1e9)))
(assert (<= e_der_dis_2_0  1e9))
(assert (<= e_der_dis_2_t  1e9))
(declare-fun e_der_dis_3_0 () Real)
(declare-fun e_der_dis_3_t () Real)
(assert (>= e_der_dis_3_0 (- 1e9)))
(assert (>= e_der_dis_3_t (- 1e9)))
(assert (<= e_der_dis_3_0  1e9))
(assert (<= e_der_dis_3_t  1e9))
(declare-fun e_der_dis_4_0 () Real)
(declare-fun e_der_dis_4_t () Real)
(assert (>= e_der_dis_4_0 (- 1e9)))
(assert (>= e_der_dis_4_t (- 1e9)))
(assert (<= e_der_dis_4_0  1e9))
(assert (<= e_der_dis_4_t  1e9))
(declare-fun e_dis () Real)
(declare-fun e_dis_0_0 () Real)
(declare-fun e_dis_0_t () Real)
(assert (>= e_dis_0_0 (- 1e9)))
(assert (>= e_dis_0_t (- 1e9)))
(assert (<= e_dis_0_0  1e9))
(assert (<= e_dis_0_t  1e9))
(declare-fun e_dis_1_0 () Real)
(declare-fun e_dis_1_t () Real)
(assert (>= e_dis_1_0 (- 1e9)))
(assert (>= e_dis_1_t (- 1e9)))
(assert (<= e_dis_1_0  1e9))
(assert (<= e_dis_1_t  1e9))
(declare-fun e_dis_2_0 () Real)
(declare-fun e_dis_2_t () Real)
(assert (>= e_dis_2_0 (- 1e9)))
(assert (>= e_dis_2_t (- 1e9)))
(assert (<= e_dis_2_0  1e9))
(assert (<= e_dis_2_t  1e9))
(declare-fun e_dis_3_0 () Real)
(declare-fun e_dis_3_t () Real)
(assert (>= e_dis_3_0 (- 1e9)))
(assert (>= e_dis_3_t (- 1e9)))
(assert (<= e_dis_3_0  1e9))
(assert (<= e_dis_3_t  1e9))
(declare-fun e_dis_4_0 () Real)
(declare-fun e_dis_4_t () Real)
(assert (>= e_dis_4_0 (- 1e9)))
(assert (>= e_dis_4_t (- 1e9)))
(assert (<= e_dis_4_0  1e9))
(assert (<= e_dis_4_t  1e9))
(declare-fun e_int_dis () Real)
(declare-fun e_int_dis_0_0 () Real)
(declare-fun e_int_dis_0_t () Real)
(assert (>= e_int_dis_0_0 (- 1e9)))
(assert (>= e_int_dis_0_t (- 1e9)))
(assert (<= e_int_dis_0_0  1e9))
(assert (<= e_int_dis_0_t  1e9))
(declare-fun e_int_dis_1_0 () Real)
(declare-fun e_int_dis_1_t () Real)
(assert (>= e_int_dis_1_0 (- 1e9)))
(assert (>= e_int_dis_1_t (- 1e9)))
(assert (<= e_int_dis_1_0  1e9))
(assert (<= e_int_dis_1_t  1e9))
(declare-fun e_int_dis_2_0 () Real)
(declare-fun e_int_dis_2_t () Real)
(assert (>= e_int_dis_2_0 (- 1e9)))
(assert (>= e_int_dis_2_t (- 1e9)))
(assert (<= e_int_dis_2_0  1e9))
(assert (<= e_int_dis_2_t  1e9))
(declare-fun e_int_dis_3_0 () Real)
(declare-fun e_int_dis_3_t () Real)
(assert (>= e_int_dis_3_0 (- 1e9)))
(assert (>= e_int_dis_3_t (- 1e9)))
(assert (<= e_int_dis_3_0  1e9))
(assert (<= e_int_dis_3_t  1e9))
(declare-fun e_int_dis_4_0 () Real)
(declare-fun e_int_dis_4_t () Real)
(assert (>= e_int_dis_4_0 (- 1e9)))
(assert (>= e_int_dis_4_t (- 1e9)))
(assert (<= e_int_dis_4_0  1e9))
(assert (<= e_int_dis_4_t  1e9))
(declare-fun r () Real)
(declare-fun r_0_0 () Real)
(declare-fun r_0_t () Real)
(assert (>= r_0_0  0))
(assert (>= r_0_t  0))
(assert (<= r_0_0  1e6))
(assert (<= r_0_t  1e6))
(declare-fun r_1_0 () Real)
(declare-fun r_1_t () Real)
(assert (>= r_1_0  0))
(assert (>= r_1_t  0))
(assert (<= r_1_0  1e6))
(assert (<= r_1_t  1e6))
(declare-fun r_2_0 () Real)
(declare-fun r_2_t () Real)
(assert (>= r_2_0  0))
(assert (>= r_2_t  0))
(assert (<= r_2_0  1e6))
(assert (<= r_2_t  1e6))
(declare-fun r_3_0 () Real)
(declare-fun r_3_t () Real)
(assert (>= r_3_0  0))
(assert (>= r_3_t  0))
(assert (<= r_3_0  1e6))
(assert (<= r_3_t  1e6))
(declare-fun r_4_0 () Real)
(declare-fun r_4_t () Real)
(assert (>= r_4_0  0))
(assert (>= r_4_t  0))
(assert (<= r_4_0  1e6))
(assert (<= r_4_t  1e6))
(declare-fun tau () Real)
(declare-fun tau_0_0 () Real)
(declare-fun tau_0_t () Real)
(assert (>= tau_0_0  0))
(assert (>= tau_0_t  0))
(assert (<= tau_0_0  1440))
(assert (<= tau_0_t  1440))
(declare-fun tau_1_0 () Real)
(declare-fun tau_1_t () Real)
(assert (>= tau_1_0  0))
(assert (>= tau_1_t  0))
(assert (<= tau_1_0  1440))
(assert (<= tau_1_t  1440))
(declare-fun tau_2_0 () Real)
(declare-fun tau_2_t () Real)
(assert (>= tau_2_0  0))
(assert (>= tau_2_t  0))
(assert (<= tau_2_0  1440))
(assert (<= tau_2_t  1440))
(declare-fun tau_3_0 () Real)
(declare-fun tau_3_t () Real)
(assert (>= tau_3_0  0))
(assert (>= tau_3_t  0))
(assert (<= tau_3_0  1440))
(assert (<= tau_3_t  1440))
(declare-fun tau_4_0 () Real)
(declare-fun tau_4_t () Real)
(assert (>= tau_4_0  0))
(assert (>= tau_4_t  0))
(assert (<= tau_4_0  1440))
(assert (<= tau_4_t  1440))
(declare-fun tau_sample () Real)
(declare-fun tau_sample_0_0 () Real)
(declare-fun tau_sample_0_t () Real)
(assert (>= tau_sample_0_0  60))
(assert (>= tau_sample_0_t  60))
(assert (<= tau_sample_0_0  60))
(assert (<= tau_sample_0_t  60))
(declare-fun tau_sample_1_0 () Real)
(declare-fun tau_sample_1_t () Real)
(assert (>= tau_sample_1_0  60))
(assert (>= tau_sample_1_t  60))
(assert (<= tau_sample_1_0  60))
(assert (<= tau_sample_1_t  60))
(declare-fun tau_sample_2_0 () Real)
(declare-fun tau_sample_2_t () Real)
(assert (>= tau_sample_2_0  60))
(assert (>= tau_sample_2_t  60))
(assert (<= tau_sample_2_0  60))
(assert (<= tau_sample_2_t  60))
(declare-fun tau_sample_3_0 () Real)
(declare-fun tau_sample_3_t () Real)
(assert (>= tau_sample_3_0  60))
(assert (>= tau_sample_3_t  60))
(assert (<= tau_sample_3_0  60))
(assert (<= tau_sample_3_t  60))
(declare-fun tau_sample_4_0 () Real)
(declare-fun tau_sample_4_t () Real)
(assert (>= tau_sample_4_0  60))
(assert (>= tau_sample_4_t  60))
(assert (<= tau_sample_4_0  60))
(assert (<= tau_sample_4_t  60))
(declare-fun x1 () Real)
(declare-fun x1_0_0 () Real)
(declare-fun x1_0_t () Real)
(assert (>= x1_0_0  0))
(assert (>= x1_0_t  0))
(assert (<= x1_0_0  1e6))
(assert (<= x1_0_t  1e6))
(declare-fun x1_1_0 () Real)
(declare-fun x1_1_t () Real)
(assert (>= x1_1_0  0))
(assert (>= x1_1_t  0))
(assert (<= x1_1_0  1e6))
(assert (<= x1_1_t  1e6))
(declare-fun x1_2_0 () Real)
(declare-fun x1_2_t () Real)
(assert (>= x1_2_0  0))
(assert (>= x1_2_t  0))
(assert (<= x1_2_0  1e6))
(assert (<= x1_2_t  1e6))
(declare-fun x1_3_0 () Real)
(declare-fun x1_3_t () Real)
(assert (>= x1_3_0  0))
(assert (>= x1_3_t  0))
(assert (<= x1_3_0  1e6))
(assert (<= x1_3_t  1e6))
(declare-fun x1_4_0 () Real)
(declare-fun x1_4_t () Real)
(assert (>= x1_4_0  0))
(assert (>= x1_4_t  0))
(assert (<= x1_4_0  1e6))
(assert (<= x1_4_t  1e6))
(declare-fun x2 () Real)
(declare-fun x2_0_0 () Real)
(declare-fun x2_0_t () Real)
(assert (>= x2_0_0  0))
(assert (>= x2_0_t  0))
(assert (<= x2_0_0  1e6))
(assert (<= x2_0_t  1e6))
(declare-fun x2_1_0 () Real)
(declare-fun x2_1_t () Real)
(assert (>= x2_1_0  0))
(assert (>= x2_1_t  0))
(assert (<= x2_1_0  1e6))
(assert (<= x2_1_t  1e6))
(declare-fun x2_2_0 () Real)
(declare-fun x2_2_t () Real)
(assert (>= x2_2_0  0))
(assert (>= x2_2_t  0))
(assert (<= x2_2_0  1e6))
(assert (<= x2_2_t  1e6))
(declare-fun x2_3_0 () Real)
(declare-fun x2_3_t () Real)
(assert (>= x2_3_0  0))
(assert (>= x2_3_t  0))
(assert (<= x2_3_0  1e6))
(assert (<= x2_3_t  1e6))
(declare-fun x2_4_0 () Real)
(declare-fun x2_4_t () Real)
(assert (>= x2_4_0  0))
(assert (>= x2_4_t  0))
(assert (<= x2_4_0  1e6))
(assert (<= x2_4_t  1e6))
(declare-fun x3 () Real)
(declare-fun x3_0_0 () Real)
(declare-fun x3_0_t () Real)
(assert (>= x3_0_0  0))
(assert (>= x3_0_t  0))
(assert (<= x3_0_0  1e6))
(assert (<= x3_0_t  1e6))
(declare-fun x3_1_0 () Real)
(declare-fun x3_1_t () Real)
(assert (>= x3_1_0  0))
(assert (>= x3_1_t  0))
(assert (<= x3_1_0  1e6))
(assert (<= x3_1_t  1e6))
(declare-fun x3_2_0 () Real)
(declare-fun x3_2_t () Real)
(assert (>= x3_2_0  0))
(assert (>= x3_2_t  0))
(assert (<= x3_2_0  1e6))
(assert (<= x3_2_t  1e6))
(declare-fun x3_3_0 () Real)
(declare-fun x3_3_t () Real)
(assert (>= x3_3_0  0))
(assert (>= x3_3_t  0))
(assert (<= x3_3_0  1e6))
(assert (<= x3_3_t  1e6))
(declare-fun x3_4_0 () Real)
(declare-fun x3_4_t () Real)
(assert (>= x3_4_0  0))
(assert (>= x3_4_t  0))
(assert (<= x3_4_0  1e6))
(assert (<= x3_4_t  1e6))
(declare-fun time_0 () Real)
(assert (>= time_0  0))
(assert (<= time_0  tau_sample_0_0))
(declare-fun time_1 () Real)
(assert (>= time_1  0))
(assert (<= time_1  tau_sample_1_0))
(declare-fun time_2 () Real)
(assert (>= time_2  0))
(assert (<= time_2  tau_sample_2_0))
(declare-fun time_3 () Real)
(assert (>= time_3  0))
(assert (<= time_3  tau_sample_3_0))
(declare-fun time_4 () Real)
(assert (>= time_4  0))
(assert (<= time_4  tau_sample_4_0))
(define-ode flow_1 ((= d/dt[DG]  0)(= d/dt[FQ1_hyper_int]  0)(= d/dt[FQ1_hypo_int]  0)(= d/dt[I]  0)(= d/dt[Q1]  0)(= d/dt[Q1_prev]  0)(= d/dt[Q2]  0)(= d/dt[S1]  0)(= d/dt[S2]  0)(= d/dt[counter]  1)(= d/dt[e_der_dis]  0)(= d/dt[e_dis]  0)(= d/dt[e_int_dis]  0)(= d/dt[r]  0)(= d/dt[tau]  1)(= d/dt[tau_sample]  0)(= d/dt[x1]  0)(= d/dt[x2]  0)(= d/dt[x3]  0)))
(define-ode flow_2 ((= d/dt[DG]  0)(= d/dt[FQ1_hyper_int]  0)(= d/dt[FQ1_hypo_int]  0)(= d/dt[I]  0)(= d/dt[Q1]  0)(= d/dt[Q1_prev]  0)(= d/dt[Q2]  0)(= d/dt[S1]  0)(= d/dt[S2]  0)(= d/dt[counter]  1)(= d/dt[e_der_dis]  0)(= d/dt[e_dis]  0)(= d/dt[e_int_dis]  0)(= d/dt[r]  0)(= d/dt[tau]  1)(= d/dt[tau_sample]  0)(= d/dt[x1]  0)(= d/dt[x2]  0)(= d/dt[x3]  0)))
(define-ode flow_3 ((= d/dt[DG]  0)(= d/dt[FQ1_hyper_int]  0)(= d/dt[FQ1_hypo_int]  0)(= d/dt[I]  0)(= d/dt[Q1]  0)(= d/dt[Q1_prev]  0)(= d/dt[Q2]  0)(= d/dt[S1]  0)(= d/dt[S2]  0)(= d/dt[counter]  1)(= d/dt[e_der_dis]  0)(= d/dt[e_dis]  0)(= d/dt[e_int_dis]  0)(= d/dt[r]  0)(= d/dt[tau]  1)(= d/dt[tau_sample]  0)(= d/dt[x1]  0)(= d/dt[x2]  0)(= d/dt[x3]  0)))
(assert (and 
(or ((and(= I_0_0 0.03351449275362304)(= x1_0_0 0.01899154566043506)(= x2_0_0 0.03128019323671478)(= x3_0_0 0.0268115942028984)(= S1_0_0 3.0525)(= S2_0_0 3.0525)(= Q1_0_0(/(* 110(* 0.16 100)) 18))(= Q2_0_0 19.08024296516837)(= tau_0_0 0.0)(= r_0_0(/(* 110(* 0.16 100)) 18))(= counter_0_0 0)(= DG_0_0 80)(= e_int_dis_0_0(* tau_sample_0_0(- r_0_0(/(* 110(* 0.16 100)) 18))))(= Q1_prev_0_0(/(* 110(* 0.16 100)) 18))(= e_der_dis_0_0(/(- Q1_prev_0_0 Q1_0_0) tau_sample_0_0))(= e_dis_0_0(- r_0_0 Q1_0_0))(= FQ1_hyper_int_0_0(-(exp(/(- Q1_0_0 256) 2))))(= FQ1_hypo_int_0_0(exp(/(- 64 Q1_0_0) 2)))))
)
(>= tau_sample_0_0 60)
(<= tau_sample_0_0 60)
(>= tau_sample_0_t 60)
(<= tau_sample_0_t 60)
(>= tau_sample_1_0 60)
(<= tau_sample_1_0 60)
(>= tau_sample_1_t 60)
(<= tau_sample_1_t 60)
(>= tau_sample_2_0 60)
(<= tau_sample_2_0 60)
(>= tau_sample_2_t 60)
(<= tau_sample_2_t 60)
(>= tau_sample_3_0 60)
(<= tau_sample_3_0 60)
(>= tau_sample_3_t 60)
(<= tau_sample_3_t 60)
(>= tau_sample_4_0 60)
(<= tau_sample_4_0 60)
(>= tau_sample_4_t 60)
(<= tau_sample_4_t 60)
(= [DG_0_t FQ1_hyper_int_0_t FQ1_hypo_int_0_t I_0_t Q1_0_t Q1_prev_0_t Q2_0_t S1_0_t S2_0_t counter_0_t e_der_dis_0_t e_dis_0_t e_int_dis_0_t r_0_t tau_0_t tau_sample_0_t x1_0_t x2_0_t x3_0_t ] (integral 0.0 time_0 [DG_0_0 FQ1_hyper_int_0_0 FQ1_hypo_int_0_0 I_0_0 Q1_0_0 Q1_prev_0_0 Q2_0_0 S1_0_0 S2_0_0 counter_0_0 e_der_dis_0_0 e_dis_0_0 e_int_dis_0_0 r_0_0 tau_0_0 tau_sample_0_0 x1_0_0 x2_0_0 x3_0_0 ] flow_1))
(= tau_0_t 300)
(= DG_1_0  80)(= FQ1_hyper_int_1_0  FQ1_hyper_int_0_t)(= FQ1_hypo_int_1_0  FQ1_hypo_int_0_t)(= I_1_0  I_0_t)(= Q1_1_0  Q1_0_t)(= Q1_prev_1_0  Q1_0_t)(= Q2_1_0  Q2_0_t)(= S1_1_0  S1_0_t)(= S2_1_0  S2_0_t)(= counter_1_0  0)(= e_der_dis_1_0 (/(- Q1_prev_0_t Q1_0_t) tau_sample_0_t))(= e_dis_1_0 (- r_0_t Q1_0_t))(= e_int_dis_1_0 (+ e_int_dis_0_t(* tau_sample_0_t(- r_0_t Q1_0_t))))(= r_1_0  r_0_t)(= tau_1_0  0)(= tau_sample_1_0  tau_sample_0_t)(= x1_1_0  x1_0_t)(= x2_1_0  x2_0_t)(= x3_1_0  x3_0_t)(= [DG_1_t FQ1_hyper_int_1_t FQ1_hypo_int_1_t I_1_t Q1_1_t Q1_prev_1_t Q2_1_t S1_1_t S2_1_t counter_1_t e_der_dis_1_t e_dis_1_t e_int_dis_1_t r_1_t tau_1_t tau_sample_1_t x1_1_t x2_1_t x3_1_t ] (integral 0.0 time_1 [DG_1_0 FQ1_hyper_int_1_0 FQ1_hypo_int_1_0 I_1_0 Q1_1_0 Q1_prev_1_0 Q2_1_0 S1_1_0 S2_1_0 counter_1_0 e_der_dis_1_0 e_dis_1_0 e_int_dis_1_0 r_1_0 tau_1_0 tau_sample_1_0 x1_1_0 x2_1_0 x3_1_0 ] flow_2))
(= counter_1_t tau_sample_1_t)
(= DG_2_0  DG_1_t)(= FQ1_hyper_int_2_0  FQ1_hyper_int_1_t)(= FQ1_hypo_int_2_0  FQ1_hypo_int_1_t)(= I_2_0  I_1_t)(= Q1_2_0  Q1_1_t)(= Q1_prev_2_0  Q1_1_t)(= Q2_2_0  Q2_1_t)(= S1_2_0  S1_1_t)(= S2_2_0  S2_1_t)(= counter_2_0  0)(= e_der_dis_2_0 (/(- Q1_prev_1_t Q1_1_t) tau_sample_1_t))(= e_dis_2_0 (- r_1_t Q1_1_t))(= e_int_dis_2_0 (+ e_int_dis_1_t(* tau_sample_1_t(- r_1_t Q1_1_t))))(= r_2_0  r_1_t)(= tau_2_0  tau_1_t)(= tau_sample_2_0  tau_sample_1_t)(= x1_2_0  x1_1_t)(= x2_2_0  x2_1_t)(= x3_2_0  x3_1_t)(= [DG_2_t FQ1_hyper_int_2_t FQ1_hypo_int_2_t I_2_t Q1_2_t Q1_prev_2_t Q2_2_t S1_2_t S2_2_t counter_2_t e_der_dis_2_t e_dis_2_t e_int_dis_2_t r_2_t tau_2_t tau_sample_2_t x1_2_t x2_2_t x3_2_t ] (integral 0.0 time_2 [DG_2_0 FQ1_hyper_int_2_0 FQ1_hypo_int_2_0 I_2_0 Q1_2_0 Q1_prev_2_0 Q2_2_0 S1_2_0 S2_2_0 counter_2_0 e_der_dis_2_0 e_dis_2_0 e_int_dis_2_0 r_2_0 tau_2_0 tau_sample_2_0 x1_2_0 x2_2_0 x3_2_0 ] flow_2))
(= counter_2_t tau_sample_2_t)
(= DG_3_0  DG_2_t)(= FQ1_hyper_int_3_0  FQ1_hyper_int_2_t)(= FQ1_hypo_int_3_0  FQ1_hypo_int_2_t)(= I_3_0  I_2_t)(= Q1_3_0  Q1_2_t)(= Q1_prev_3_0  Q1_2_t)(= Q2_3_0  Q2_2_t)(= S1_3_0  S1_2_t)(= S2_3_0  S2_2_t)(= counter_3_0  0)(= e_der_dis_3_0 (/(- Q1_prev_2_t Q1_2_t) tau_sample_2_t))(= e_dis_3_0 (- r_2_t Q1_2_t))(= e_int_dis_3_0 (+ e_int_dis_2_t(* tau_sample_2_t(- r_2_t Q1_2_t))))(= r_3_0  r_2_t)(= tau_3_0  tau_2_t)(= tau_sample_3_0  tau_sample_2_t)(= x1_3_0  x1_2_t)(= x2_3_0  x2_2_t)(= x3_3_0  x3_2_t)(= [DG_3_t FQ1_hyper_int_3_t FQ1_hypo_int_3_t I_3_t Q1_3_t Q1_prev_3_t Q2_3_t S1_3_t S2_3_t counter_3_t e_der_dis_3_t e_dis_3_t e_int_dis_3_t r_3_t tau_3_t tau_sample_3_t x1_3_t x2_3_t x3_3_t ] (integral 0.0 time_3 [DG_3_0 FQ1_hyper_int_3_0 FQ1_hypo_int_3_0 I_3_0 Q1_3_0 Q1_prev_3_0 Q2_3_0 S1_3_0 S2_3_0 counter_3_0 e_der_dis_3_0 e_dis_3_0 e_int_dis_3_0 r_3_0 tau_3_0 tau_sample_3_0 x1_3_0 x2_3_0 x3_3_0 ] flow_2))
(= tau_3_t 300)
(= DG_4_0  80)(= FQ1_hyper_int_4_0  FQ1_hyper_int_3_t)(= FQ1_hypo_int_4_0  FQ1_hypo_int_3_t)(= I_4_0  I_3_t)(= Q1_4_0  Q1_3_t)(= Q1_prev_4_0  Q1_3_t)(= Q2_4_0  Q2_3_t)(= S1_4_0  S1_3_t)(= S2_4_0  S2_3_t)(= counter_4_0  0)(= e_der_dis_4_0 (/(- Q1_prev_3_t Q1_3_t) tau_sample_3_t))(= e_dis_4_0 (- r_3_t Q1_3_t))(= e_int_dis_4_0 (+ e_int_dis_3_t(* tau_sample_3_t(- r_3_t Q1_3_t))))(= r_4_0  r_3_t)(= tau_4_0  0)(= tau_sample_4_0  tau_sample_3_t)(= x1_4_0  x1_3_t)(= x2_4_0  x2_3_t)(= x3_4_0  x3_3_t)(= [DG_4_t FQ1_hyper_int_4_t FQ1_hypo_int_4_t I_4_t Q1_4_t Q1_prev_4_t Q2_4_t S1_4_t S2_4_t counter_4_t e_der_dis_4_t e_dis_4_t e_int_dis_4_t r_4_t tau_4_t tau_sample_4_t x1_4_t x2_4_t x3_4_t ] (integral 0.0 time_4 [DG_4_0 FQ1_hyper_int_4_0 FQ1_hypo_int_4_0 I_4_0 Q1_4_0 Q1_prev_4_0 Q2_4_0 S1_4_0 S2_4_0 counter_4_0 e_der_dis_4_0 e_dis_4_0 e_int_dis_4_0 r_4_0 tau_4_0 tau_sample_4_0 x1_4_0 x2_4_0 x3_4_0 ] flow_3))
(or ((= tau_4_t 300)))))
(check-sat)
(exit)
